\ LP format - for model browsing. Use MPS format to capture full model detail.
Minimize
  65 reqToPerson#0 + 50 reqToPerson#1
Subject To
 PatternConstraint0OnfindReq_0: reqToPerson#0 + reqToPerson#1 = 1
Bounds
Binaries
 reqToPerson#0 reqToPerson#1
End
